\ Model poolsearch
\ LP format - for model browsing. Use MPS format to capture full model detail.
Maximize
  32 El[0] + 32 El[1] + 15 El[2] + 15 El[3] + 6 El[4] + 6 El[5] + El[6]
   + El[7] + El[8] + El[9]
Subject To
 Budget: 16 El[0] + 16 El[1] + 8 El[2] + 8 El[3] + 4 El[4] + 4 El[5]
   + 2 El[6] + 2 El[7] + El[8] + El[9] <= 33
Bounds
Binaries
 El[0] El[1] El[2] El[3] El[4] El[5] El[6] El[7] El[8] El[9]
End
